# Solution for model iteration_367_copy
# Objective value = 1.4151319721213054e+02
0 0
1 4.0010000000000021e+00
3 2.2009999999999996e+00
5 0.001
7 0.001
9 2.6402000000000005e+01
11 2.0254011214236666e+01
13 4.8002000000000010e+01
15 5.0603000000000009e+01
17 4.0751422582203020e+01
18 4.1751422582203020e+01
19 4.3256335281697936e+01
21 5.2133577562946911e+01
22 5.3133577562946911e+01
23 5.4484583468868976e+01
24 5.5484583468868976e+01
25 5.1655459811020023e+01
26 5.2655459811020023e+01
27 5.7655011214236666e+01
29 7.4403000000000020e+01
31 7.4804000000000016e+01
33 1.0080400000000002e+02
34 1.0180400000000002e+02
35 1.0080400000000002e+02
36 1.0180400000000002e+02
37 1.0180500000000002e+02
39 1.0340500000000002e+02
41 8.9011404259510286e+01
42 9.0011404259510286e+01
43 9.1885319531627758e+01
44 9.2885319531627758e+01
45 7.3677021126491113e+01
46 7.4677021126491113e+01
47 9.2886319531627763e+01
49 7.4678021126491117e+01
51 1.2820600000000002e+02
52 1.2920600000000002e+02
53 1.2820600000000002e+02
54 1.2920600000000002e+02
55 1.2920700000000002e+02
57 1.3200600000000003e+02
59 1.1320657926235108e+02
60 1.1420657926235108e+02
61 1.1479443130112662e+02
63 1.5560800000000003e+02
64 1.5660800000000003e+02
65 1.5660900000000004e+02
67 1.3287691245505911e+02
69 1.1433621456052884e+02
70 1.1533621456052884e+02
71 1.1632035329282293e+02
73 1.8301000000000005e+02
74 1.8401000000000005e+02
75 1.8401100000000005e+02
76 1.8501100000000005e+02
77 1.6162267506893957e+02
78 1.6262267506893957e+02
79 1.6427234414711631e+02
81 1.8452535534307344e+02
82 1.8552535534307344e+02
83 1.9287334414711631e+02
85 1.5707558219239664e+02
86 1.5807558219239664e+02
87 1.5957559259058576e+02
89 1.8554054273925723e+02
90 1.8654054273925723e+02
91 1.8452535534307344e+02
92 1.8552535534307344e+02
93 1.8422508137611280e+02
94 1.8522508137611280e+02
95 1.8552635534307345e+02
96 1.8652635534307345e+02
97 1.8654154273925724e+02
98 1.8754154273925724e+02
99 1.8460531259869833e+02
100 1.8560531259869833e+02
101 1.8552635534307345e+02
102 1.8652635534307345e+02
103 1.8652735534307345e+02
105 1.8654154273925724e+02
107 2.0651466237062994e+02
108 2.0751466237062994e+02
109 2.0751566237062994e+02
111 2.2585252243641474e+02
113 2.3966936186094696e+02
114 2.4066936186094696e+02
115 2.4067036186094697e+02
117 2.7971083119463685e+02
118 2.8071083119463685e+02
119 2.8071183119463683e+02
121 2.7406299195513935e+02
122 2.7506299195513935e+02
123 2.6835218978780489e+02
124 2.6935218978780489e+02
125 2.7388764789568819e+02
126 2.7488764789568819e+02
127 2.7506399195513933e+02
129 3.0355494983163226e+02
130 3.0455494983163226e+02
131 3.0455594983163223e+02
132 3.0555594983163223e+02
133 3.0555694983163221e+02
135 3.3364619800108824e+02
136 3.3464619800108824e+02
137 3.3210235898485769e+02
138 3.3310235898485769e+02
139 332.548928692235
140 333.548928692235
141 3.3464719800108821e+02
143 3.3310335898485766e+02
144 3.3410335898485766e+02
145 3.3410435898485764e+02
147 315.552592924564
148 316.552592924564
149 3.3666499195513933e+02
150 3.3766499195513933e+02
151 316.553592924564
152 317.553592924564
153 3.1755459292456396e+02
155 3.6112754748454563e+02
156 3.6212754748454563e+02
157 3.6212854748454561e+02
159 3.7150535898485765e+02
160 3.7250535898485765e+02
161 3.8333943385638219e+02
162 3.8433943385638219e+02
163 3.6558971687187056e+02
164 3.6658971687187056e+02
165 3.5634340256037706e+02
166 3.5734340256037706e+02
167 3.6659071687187054e+02
169 3.8434043385638216e+02
170 3.8534043385638216e+02
171 3.8534143385638214e+02
173 4.0251819721213053e+02
174 4.0351819721213053e+02
175 4.0351919721213051e+02
c(0,175)_ru 1.4151319721213054e+02
lambda[0] 0
lambda[1] 0
lambda[2] 0
lambda[3] 0
lambda[4] 0
lambda[5] 0
lambda[6] 0
lambda[7] 0
lambda[8] 0
lambda[9] 0
lambda[10] 0
lambda[11] 0
lambda[12] 0
lambda[13] 0
lambda[14] 0
lambda[15] 0
lambda[16] 0
lambda[17] 0
lambda[18] 0
lambda[19] 0
lambda[20] 0
lambda[21] 0
lambda[22] 0
lambda[23] 0
lambda[24] 0
lambda[25] 0
lambda[26] 0
lambda[27] 0
lambda[28] 0
lambda[29] 0
lambda[30] 0
lambda[31] 0
lambda[32] 0
lambda[33] 0
lambda[34] 0
lambda[35] 0
lambda[36] 0
lambda[37] 0
lambda[38] 0
lambda[39] 0
lambda[40] 0
lambda[41] 0
lambda[42] 0
lambda[43] 0
lambda[44] 0
lambda[45] 0
lambda[46] 0
lambda[47] 0
lambda[48] 0
lambda[49] 0
lambda[50] 0
lambda[51] 0
lambda[52] 0
lambda[53] 0
lambda[54] 0
lambda[55] 0
lambda[56] 0
lambda[57] 0
lambda[58] 0
lambda[59] 0
lambda[60] 0
lambda[61] 0
lambda[62] 0
lambda[63] 0
lambda[64] 0
lambda[65] 0
lambda[66] 0
lambda[67] 0
lambda[68] 0
lambda[69] 0
lambda[70] 0
lambda[71] 0
lambda[72] 0
lambda[73] 0
lambda[74] 0
lambda[75] 0
lambda[76] 0
lambda[77] 0
lambda[78] 0
lambda[79] 0
lambda[80] 0
lambda[81] 0
lambda[82] 0
lambda[83] 0
lambda[84] 0
lambda[85] 0
lambda[86] 0
lambda[87] 0
lambda[88] 0
lambda[89] 0
lambda[90] 0
lambda[91] 0
lambda[92] 0
lambda[93] 0
lambda[94] 0
lambda[95] 0
lambda[96] 0
lambda[97] 0
lambda[98] 0
lambda[99] 0
lambda[100] 0
lambda[101] 0
lambda[102] 0
lambda[103] 0
lambda[104] 0
lambda[105] 0
lambda[106] 0
lambda[107] 0
lambda[108] 0
lambda[109] 0
lambda[110] 0
lambda[111] 0
lambda[112] 0
lambda[113] 0
lambda[114] 0
lambda[115] 0
lambda[116] 0
lambda[117] 0
lambda[118] 0
lambda[119] 0
lambda[120] 0
lambda[121] 0
lambda[122] 0
lambda[123] 0
lambda[124] 0
lambda[125] 0
lambda[126] 0
lambda[127] 0
lambda[128] 0
lambda[129] 0
lambda[130] 0
lambda[131] 0
lambda[132] 0
lambda[133] 0
lambda[134] 0
lambda[135] 0
lambda[136] 0
lambda[137] 0
lambda[138] 0
lambda[139] 0
lambda[140] 0
lambda[141] 0
lambda[142] 0
lambda[143] 0
lambda[144] 0
lambda[145] 0
lambda[146] 0
lambda[147] 0
lambda[148] 0
lambda[149] 0
lambda[150] 0
lambda[151] 0
lambda[152] 0
lambda[153] 0
lambda[154] 0
lambda[155] 0
lambda[156] 0
lambda[157] 0
lambda[158] 0
lambda[159] 0
lambda[160] 0
lambda[161] 0
lambda[162] 0
lambda[163] 0
lambda[164] 0
lambda[165] 0
lambda[166] 0
lambda[167] 0
lambda[168] 0
lambda[169] 0
lambda[170] 0
lambda[171] 0
lambda[172] 0
lambda[173] 0
lambda[174] 0
lambda[175] 0
lambda[176] 0
lambda[177] 0
lambda[178] 0
lambda[179] 0
lambda[180] 0
lambda[181] 0
lambda[182] 0
lambda[183] 0
lambda[184] 0
lambda[185] 0
lambda[186] 0
lambda[187] 0
lambda[188] 0
lambda[189] 0
lambda[190] 0
lambda[191] 0
lambda[192] 0
lambda[193] 0
lambda[194] 0
lambda[195] 0
lambda[196] 0
lambda[197] 0
lambda[198] 0
lambda[199] 0
lambda[200] 0
lambda[201] 0
lambda[202] 0
lambda[203] 0
lambda[204] 0
lambda[205] 0
lambda[206] 0
lambda[207] 0
lambda[208] 0
lambda[209] 0
lambda[210] 0
lambda[211] 0
lambda[212] 0
lambda[213] 0
lambda[214] 0
lambda[215] 0
lambda[216] 0
lambda[217] 0
lambda[218] 0
lambda[219] 0
lambda[220] 0
lambda[221] 0
lambda[222] 0
lambda[223] 0
lambda[224] 0
lambda[225] 0
lambda[226] 0
lambda[227] 0
lambda[228] 0
lambda[229] 0
lambda[230] 0
lambda[231] 0
lambda[232] 0
lambda[233] 0
lambda[234] 0
lambda[235] 0
lambda[236] 0
lambda[237] 0
lambda[238] 0
lambda[239] 0
lambda[240] 0
lambda[241] 0
lambda[242] 0
lambda[243] 0
lambda[244] 0
lambda[245] 0
lambda[246] 0
lambda[247] 0
lambda[248] 0
lambda[249] 0
lambda[250] 0
lambda[251] 0
lambda[252] 0
lambda[253] 0
lambda[254] 0
lambda[255] 0
lambda[256] 0
lambda[257] 0
lambda[258] 0
lambda[259] 0
lambda[260] 0
lambda[261] 0
lambda[262] 0
lambda[263] 0
lambda[264] 0
lambda[265] 0
lambda[266] 0
lambda[267] 0
lambda[268] 0
lambda[269] 0
lambda[270] 0
lambda[271] 0
lambda[272] 0
lambda[273] 0
lambda[274] 0
lambda[275] 0
lambda[276] 0
lambda[277] 0
lambda[278] 0
lambda[279] 0
lambda[280] 0
lambda[281] 0
lambda[282] 0
lambda[283] 0
lambda[284] 0
lambda[285] 0
lambda[286] 0
lambda[287] 0
lambda[288] 0
lambda[289] 0
lambda[290] 0
lambda[291] 0
lambda[292] 0
lambda[293] 0
lambda[294] 0
lambda[295] 0
lambda[296] 0
lambda[297] 0
lambda[298] 0
lambda[299] 0
lambda[300] 0
lambda[301] 0
lambda[302] 0
lambda[303] 0
lambda[304] 0
lambda[305] 0
lambda[306] 0
lambda[307] 0
lambda[308] 0
lambda[309] 0
lambda[310] 0
lambda[311] 0
lambda[312] 0
lambda[313] 0
lambda[314] 0
lambda[315] 0
lambda[316] 0
lambda[317] 0
lambda[318] 0
lambda[319] 0
lambda[320] 0
lambda[321] 0
lambda[322] 0
lambda[323] 0
lambda[324] 0
lambda[325] 0
lambda[326] 0
lambda[327] 0
lambda[328] 0
lambda[329] 0
lambda[330] 0
lambda[331] 0
lambda[332] 0
lambda[333] 0
lambda[334] 0
lambda[335] 0
lambda[336] 0
lambda[337] 0
lambda[338] 0
lambda[339] 0
lambda[340] 0
lambda[341] 0
lambda[342] 0
lambda[343] 0
lambda[344] 0
lambda[345] 0
lambda[346] 0
lambda[347] 0
lambda[348] 0
lambda[349] 0
lambda[350] 0
lambda[351] 0
lambda[352] 0
lambda[353] 0
lambda[354] 0
lambda[355] 0
lambda[356] 0
lambda[357] 0
lambda[358] 0
lambda[359] 0
lambda[360] 0
lambda[361] 0
lambda[362] 0
lambda[363] 1.0756685302785918e-01
lambda[364] 0
lambda[365] 0.781354880190674
lambda[366] 1.1107826678146682e-01
phi[0] 2.8768207245178096e-01
